p cnf 61 89
-1 -77 0
-3 -78 0
-1 -79 0
-3 -79 0
-3 -77 0
-3 -80 0
-1 -81 0
-3 -81 0
-3 -83 0
-1 -84 0
-3 -84 0
-3 -86 0
-1 -87 0
-3 -87 0
-3 -88 0
-1 -89 0
-3 -89 0
-3 -90 0
-1 -92 0
-3 -92 0
-3 -93 0
-1 -94 0
-3 -94 0
-3 -95 0
-1 -97 0
-3 -97 0
-3 -99 0
-1 -100 0
-3 -100 0
-3 -101 0
-1 -102 0
-3 -102 0
-3 -103 0
-1 -104 0
-3 -104 0
-3 -105 0
-1 -107 0
-3 -107 0
-3 -108 0
-1 -109 0
-3 -109 0
-3 -110 0
-1 -111 0
-3 -111 0
-3 -112 0
-1 -113 0
-3 -113 0
-3 -114 0
-1 -115 0
-3 -115 0
-3 -116 0
-1 -117 0
-3 -117 0
-3 -118 0
-1 -119 0
-3 -119 0
-3 -120 0
-1 -121 0
-3 -121 0
-3 -122 0
-1 -123 0
-3 -123 0
-3 -124 0
-1 -126 0
-3 -126 0
-3 -127 0
-1 -128 0
-3 -128 0
-3 -129 0
-1 -130 0
-3 -130 0
-3 -131 0
-1 -132 0
-3 -132 0
-3 -133 0
-1 -135 0
-3 -135 0
-3 -136 0
-1 -139 0
-3 -139 0
-3 -140 0
-1 -141 0
-3 -141 0
-3 -142 0
-1 -143 0
-3 -143 0
-3 -144 0
-1 -146 0
-3 -146 0
